set VV := 0 1 2 3 4 5 6 7 8 9 10 11 12 13 14 15 16 17 ;
set VS := 0 1 2 3 4 5 6 7 8 9 10 11 12 13 14 15 16 17 18 19 20 21 22 23 24 25 26 27 28 29 30 31 32 33 34 35 36 37 38 39 ;
param cv := 
0 24
1 13
2 23
3 14
4 25
5 22
6 14
7 20
8 19
9 15
10 21
11 21
12 22
13 21
14 25
15 23
16 10
17 22
;
param cs := 
0 33
1 29
2 33
3 34
4 29
5 37
6 40
7 39
8 34
9 31
10 36
11 39
12 22
13 28
14 27
15 21
16 27
17 28
18 35
19 25
20 28
21 30
22 34
23 22
24 35
25 27
26 29
27 32
28 26
29 32
30 30
31 22
32 32
33 20
34 33
35 26
36 24
37 24
38 40
39 38
;
param bv:	 0 1 2 3 4 5 6 7 8 9 10 11 12 13 14 15 16 17 := 
		0 0 0 0 0 14 0 0 0 0 0 0 0 0 0 0 0 0 0 
		1 0 0 0 0 0 0 0 0 0 14 0 0 24 18 0 0 20 0 
		2 0 0 0 0 0 0 0 0 0 11 0 0 0 0 0 16 0 0 
		3 0 0 0 0 17 0 0 0 0 0 0 0 0 0 0 0 0 0 
		4 0 0 0 0 0 0 0 0 0 0 0 22 0 0 17 0 0 0 
		5 0 0 0 0 0 0 0 0 0 12 0 0 0 0 0 0 0 0 
		6 0 0 0 0 0 0 0 0 0 0 0 0 0 0 13 0 0 0 
		7 0 0 0 0 0 0 0 0 0 0 0 0 0 0 0 0 0 24 
		8 0 0 0 0 0 0 0 0 0 0 0 0 0 0 15 0 0 0 
		9 0 0 0 0 0 0 0 0 0 0 0 0 24 0 0 0 0 0 
		10 0 0 0 0 0 0 0 0 0 0 0 0 0 0 12 0 25 0 
		11 0 0 0 0 0 0 0 0 0 0 0 0 0 0 0 0 0 0 
		12 0 0 0 0 0 0 0 0 0 0 0 0 0 0 0 0 0 0 
		13 0 0 0 0 0 0 0 0 0 0 0 0 0 0 0 0 0 0 
		14 0 0 0 0 0 0 0 0 0 0 0 0 0 0 0 0 19 0 
		15 0 0 0 0 0 0 0 0 0 0 0 0 0 0 0 0 0 13 
		16 0 0 0 0 0 0 0 0 0 0 0 0 0 0 0 0 0 0 
		17 0 0 0 0 0 0 0 0 0 0 0 0 0 0 0 0 0 0 
;
param bs:	 0 1 2 3 4 5 6 7 8 9 10 11 12 13 14 15 16 17 18 19 20 21 22 23 24 25 26 27 28 29 30 31 32 33 34 35 36 37 38 39 := 
		0 0 0 0 0 0 0 0 0 0 0 0 0 0 0 0 0 0 0 0 28 0 0 0 0 0 0 39 0 0 0 0 0 37 0 0 23 0 0 0 0 
		1 0 0 0 0 0 36 0 0 0 0 0 0 0 0 0 0 0 0 0 0 0 0 0 0 30 0 0 0 40 0 0 0 0 0 0 0 0 0 0 0 
		2 0 0 0 0 24 0 0 0 0 0 0 0 0 0 0 0 0 0 0 0 0 0 0 0 0 37 0 0 0 0 0 0 0 0 0 0 0 0 0 0 
		3 0 0 0 0 33 0 0 0 0 0 32 0 0 0 0 0 0 0 0 0 0 0 0 0 0 0 0 0 0 0 0 0 0 0 0 0 28 0 0 0 
		4 0 0 24 33 0 31 33 0 0 0 0 0 0 0 0 0 0 0 0 0 0 33 0 0 0 31 0 0 0 0 0 0 0 38 0 0 0 32 0 0 
		5 0 36 0 0 31 0 0 0 0 0 0 0 0 0 0 0 0 0 0 0 0 0 33 0 0 0 0 0 0 0 0 20 0 0 0 0 0 0 0 0 
		6 0 0 0 0 33 0 0 0 0 0 0 0 0 0 0 37 0 0 0 0 38 0 0 0 0 0 0 0 32 0 0 0 0 0 0 0 0 0 0 0 
		7 0 0 0 0 0 0 0 0 0 0 0 0 0 0 0 0 0 0 0 0 0 0 0 0 0 0 0 0 0 0 0 0 0 29 0 0 0 0 0 0 
		8 0 0 0 0 0 0 0 0 0 0 0 29 0 0 0 30 0 30 0 0 34 0 0 0 0 0 25 0 0 0 0 0 31 0 0 0 39 0 0 0 
		9 0 0 0 0 0 0 0 0 0 0 0 0 0 0 27 0 26 0 40 0 0 0 0 0 31 28 0 30 0 34 0 22 0 0 0 0 0 0 0 0 
		10 0 0 0 32 0 0 0 0 0 0 0 0 0 0 0 0 0 0 0 0 0 0 35 0 0 0 0 0 0 0 0 0 0 0 0 0 0 0 0 0 
		11 0 0 0 0 0 0 0 0 29 0 0 0 31 0 0 0 0 0 0 22 0 0 0 0 0 0 38 0 0 0 22 0 0 0 0 0 0 0 0 0 
		12 0 0 0 0 0 0 0 0 0 0 0 31 0 0 0 0 0 0 0 37 0 0 0 0 0 0 0 0 0 0 0 34 0 20 0 0 0 0 0 0 
		13 0 0 0 0 0 0 0 0 0 0 0 0 0 0 31 0 0 0 0 0 0 0 0 0 0 0 0 0 0 0 0 0 0 0 0 0 0 0 0 0 
		14 0 0 0 0 0 0 0 0 0 27 0 0 0 31 0 0 25 0 0 0 0 0 0 0 40 27 0 0 0 0 0 0 0 0 38 0 0 0 0 0 
		15 0 0 0 0 0 0 37 0 30 0 0 0 0 0 0 0 0 0 0 0 0 0 0 27 0 0 0 0 0 0 0 0 0 0 0 37 0 0 0 0 
		16 0 0 0 0 0 0 0 0 0 26 0 0 0 0 25 0 0 34 21 0 0 0 0 0 20 0 0 0 0 0 0 0 0 0 29 0 0 0 0 0 
		17 0 0 0 0 0 0 0 0 30 0 0 0 0 0 0 0 34 0 0 0 0 0 0 0 29 0 0 0 0 0 0 29 0 0 24 20 0 0 0 0 
		18 0 0 0 0 0 0 0 0 0 40 0 0 0 0 0 0 21 0 0 0 0 0 0 0 26 0 0 0 0 0 0 0 0 0 0 0 0 0 0 0 
		19 28 0 0 0 0 0 0 0 0 0 0 22 37 0 0 0 0 0 0 0 0 0 0 0 26 0 0 0 0 0 0 0 0 0 0 30 0 0 0 0 
		20 0 0 0 0 0 0 38 0 34 0 0 0 0 0 0 0 0 0 0 0 0 22 0 0 0 0 0 0 0 0 33 0 0 0 0 0 0 0 33 25 
		21 0 0 0 0 33 0 0 0 0 0 0 0 0 0 0 0 0 0 0 0 22 0 0 0 0 0 0 0 0 0 0 0 0 0 0 0 0 0 0 0 
		22 0 0 0 0 0 33 0 0 0 0 35 0 0 0 0 0 0 0 0 0 0 0 0 0 0 0 0 0 39 0 0 0 0 0 0 0 0 35 38 0 
		23 0 0 0 0 0 0 0 0 0 0 0 0 0 0 0 27 0 0 0 0 0 0 0 0 0 0 0 0 0 0 32 0 0 0 0 0 39 0 0 26 
		24 0 30 0 0 0 0 0 0 0 31 0 0 0 0 40 0 20 29 26 26 0 0 0 0 0 23 0 0 0 0 0 0 0 0 0 0 0 0 0 0 
		25 0 0 37 0 31 0 0 0 0 28 0 0 0 0 27 0 0 0 0 0 0 0 0 0 23 0 0 0 0 0 0 0 0 0 0 0 0 0 0 0 
		26 39 0 0 0 0 0 0 0 25 0 0 38 0 0 0 0 0 0 0 0 0 0 0 0 0 0 0 0 0 0 0 0 24 0 0 32 20 0 0 0 
		27 0 0 0 0 0 0 0 0 0 30 0 0 0 0 0 0 0 0 0 0 0 0 0 0 0 0 0 0 0 0 29 28 0 0 0 0 0 38 0 0 
		28 0 40 0 0 0 0 32 0 0 0 0 0 0 0 0 0 0 0 0 0 0 0 39 0 0 0 0 0 0 0 0 0 0 0 0 0 0 0 0 0 
		29 0 0 0 0 0 0 0 0 0 34 0 0 0 0 0 0 0 0 0 0 0 0 0 0 0 0 0 0 0 0 0 0 0 0 0 0 0 0 0 0 
		30 0 0 0 0 0 0 0 0 0 0 0 22 0 0 0 0 0 0 0 0 33 0 0 32 0 0 0 29 0 0 0 0 0 0 0 0 0 0 34 21 
		31 0 0 0 0 0 20 0 0 0 22 0 0 34 0 0 0 0 29 0 0 0 0 0 0 0 0 0 28 0 0 0 0 0 0 0 0 0 0 0 0 
		32 37 0 0 0 0 0 0 0 31 0 0 0 0 0 0 0 0 0 0 0 0 0 0 0 0 0 24 0 0 0 0 0 0 0 0 0 0 0 0 0 
		33 0 0 0 0 38 0 0 29 0 0 0 0 20 0 0 0 0 0 0 0 0 0 0 0 0 0 0 0 0 0 0 0 0 0 0 0 0 0 0 31 
		34 0 0 0 0 0 0 0 0 0 0 0 0 0 0 38 0 29 24 0 0 0 0 0 0 0 0 0 0 0 0 0 0 0 0 0 0 0 27 0 0 
		35 23 0 0 0 0 0 0 0 0 0 0 0 0 0 0 37 0 20 0 30 0 0 0 0 0 0 32 0 0 0 0 0 0 0 0 0 0 0 0 0 
		36 0 0 0 28 0 0 0 0 39 0 0 0 0 0 0 0 0 0 0 0 0 0 0 39 0 0 20 0 0 0 0 0 0 0 0 0 0 0 0 0 
		37 0 0 0 0 32 0 0 0 0 0 0 0 0 0 0 0 0 0 0 0 0 0 35 0 0 0 0 38 0 0 0 0 0 0 27 0 0 0 0 0 
		38 0 0 0 0 0 0 0 0 0 0 0 0 0 0 0 0 0 0 0 0 33 0 38 0 0 0 0 0 0 0 34 0 0 0 0 0 0 0 0 0 
		39 0 0 0 0 0 0 0 0 0 0 0 0 0 0 0 0 0 0 0 0 25 0 0 26 0 0 0 0 0 0 21 0 0 31 0 0 0 0 0 0 
;
